30
5
175656
0
0
79 42 11 40 36
1
0
80 42 8 65 39
2
0
68 40 14 37 58
3
0
69 60 15 58 37
4
0
55 55 10 44 37
5
0
75 32 10 44 40
6
0
78 62 7 51 34
7
0
93 43 9 43 25
8
0
72 70 10 68 33
9
0
79 57 9 45 27
10
0
52 41 20 58 39
11
0
82 41 19 49 29
12
0
86 43 13 54 33
13
0
78 29 6 36 28
14
0
64 61 10 47 36
15
0
85 29 10 53 32
16
0
50 57 16 51 23
17
0
77 63 8 53 29
18
0
116 54 8 45 55
19
0
59 53 19 58 29
20
0
76 25 7 44 40
21
0
91 47 10 64 32
22
0
59 50 6 57 33
23
0
51 33 9 59 24
24
0
74 40 18 49 43
25
0
82 36 9 54 37
26
0
63 48 6 59 41
27
0
78 32 11 66 18
28
0
93 47 9 43 26
29
0
71 52 9 56 25
